
Gurobi 11.0.1 (win64) logging started Thu Mar 21 21:06:29 2024

Set parameter LogFile to value "C:\Projetos\Job_Rotation_Algorithms\Outputs\GurobiLogs\gurobi_log-output-3_hes-c107-CostaMirallesModel-NoExtraConstraint-2.log"
Gurobi Optimizer version 11.0.1 build v11.0.1rc0 (win64 - Windows 10.0 (19045.2))

CPU model: 11th Gen Intel(R) Core(TM) i7-1165G7 @ 2.80GHz, instruction set [SSE2|AVX|AVX2|AVX512]
Thread count: 4 physical cores, 8 logical processors, using up to 1 threads

WLS license 901039 - registered to Bitka Analytics
Optimize a model with 483 rows, 970 columns and 7802 nonzeros
Model fingerprint: 0xc822724d
Variable types: 2 continuous, 968 integer (968 binary)
Coefficient statistics:
  Matrix range     [1e+00, 1e+02]
  Objective range  [1e+00, 1e+00]
  Bounds range     [1e+00, 2e+02]
  RHS range        [1e+00, 2e+02]
Presolve removed 165 rows and 163 columns
Presolve time: 0.05s
Presolved: 318 rows, 807 columns, 4694 nonzeros
Variable types: 0 continuous, 807 integer (806 binary)

Root relaxation: objective 5.600000e+01, 494 iterations, 0.02 seconds (0.01 work units)

    Nodes    |    Current Node    |     Objective Bounds      |     Work
 Expl Unexpl |  Obj  Depth IntInf | Incumbent    BestBd   Gap | It/Node Time

     0     0   56.00000    0   14          -   56.00000      -     -    0s
     0     0   56.00000    0  110          -   56.00000      -     -    0s
     0     0   56.00000    0   58          -   56.00000      -     -    0s
     0     0   56.00000    0   16          -   56.00000      -     -    0s
     0     0   56.00000    0   39          -   56.00000      -     -    0s
     0     0   56.00000    0   32          -   56.00000      -     -    0s
     0     0   56.00000    0   38          -   56.00000      -     -    0s
     0     0   56.00000    0   27          -   56.00000      -     -    0s
     0     0   56.00000    0   49          -   56.00000      -     -    0s
     0     0   56.00000    0   15          -   56.00000      -     -    0s
     0     0   56.00000    0   14          -   56.00000      -     -    0s
     0     2   56.00000    0   14          -   56.00000      -     -    0s
H  546   225                      43.0000000   56.00000  30.2%  59.6    1s
H  546   225                      44.0000000   56.00000  27.3%  59.6    1s
H  655   227                      45.0000000   56.00000  24.4%  64.0    1s
H  897   231                      47.0000000   56.00000  19.1%  70.8    2s
  1287   304   56.00000   15  109   47.00000   56.00000  19.1%  93.6    5s
H 1883   109                      49.0000000   56.00000  14.3%   115    9s
  1932    92   55.55584   25  131   49.00000   56.00000  14.3%   116   10s

Cutting planes:
  Cover: 28
  Implied bound: 1
  Clique: 16
  MIR: 3
  Flow cover: 5
  GUB cover: 5
  Zero half: 1
  RLT: 1
  Relax-and-lift: 1

Explored 2179 nodes (253428 simplex iterations) in 11.51 seconds (11.17 work units)
Thread count was 1 (of 8 available processors)

Solution count 5: 49 47 45 ... 43

Optimal solution found (tolerance 1.00e-03)
Best objective 4.900000000000e+01, best bound 4.900000000000e+01, gap 0.0000%
